100
128
51
2
7
3
26
9
18
19
21
43
9
12
9
10
3
15
3
1
2
12
3
6
59
57
63
44
4
2
21
13
64
49
45
49
43
44
22
7
4
56
1
39
4
53
64
44
39
52
48
46
10
60
20
43
19
56
50
62
55
61
12
54
6
4
10
44
39
47
59
33
1
35
55
5
12
10
22
33
13
45
61
29
48
33
15
50
48
53
26
40
60
7
40
4
15
43
4
36
7
4